0 23 
1 25 
2 24 
3 25 
4 27 
5 26 
6 25 
7 26 
8 23 
9 23 
10 23 
11 22 
12 21 
13 20 
14 18 
15 17 
16 17 
17 18 
18 17 
19 16 
20 15 
21 12 
22 13 
23 10 
24 8 
25 7 
26 6 
27 5 
28 3 
29 3 
30 2 
31 0 
32 0 

